1 23843700
2 23843700
3 23843700
4 23843700
5 23843700
6 23843700
7 23843700
8 23843700
9 23843700
10 23843700
11 23843700
12 23329402
13 23329402
14 23329402
15 23329402
16 23329402
17 23329402
18 23329402
19 23329402
20 23329402
21 23329402
22 23329402
23 23329402
24 23329402
25 23329402
26 23329402
27 23329402
28 23329402
29 23329402
30 23329402
31 23329402
32 23329402
33 23329402
34 23329402
35 23329402
36 23329402
37 23329402
38 23329402
39 23329402
40 23329402
41 23188498
42 23188498
43 23188498
44 23188498
45 23188498
46 23188498
47 23188498
48 23188498
49 23188498
50 23188498
51 23188498
52 23188498
53 23188498
54 23188498
55 23188498
56 23188498
57 23188498
58 23157888
59 23157888
60 23157888
61 23157888
62 23157888
63 23157888
64 23157888
65 23157888
66 23157888
67 23157888
68 23157888
69 23157888
70 23157888
71 23157888
72 23157888
73 23157888
74 23083080
75 23083080
76 23083080
77 23083080
78 23049026
79 23049026
80 23049026
81 23049026
82 23049026
83 23049026
84 23049026
85 23049026
86 23049026
87 23049026
88 23049026
89 23049026
90 23049026
91 23049026
92 23049026
93 23049026
94 23049026
95 23049026
96 23049026
97 23049026
98 23049026
99 23049026
100 23049026
101 23049026
102 23049026
103 23049026
104 23049026
105 23049026
106 23049026
107 23049026
108 23049026
109 23036338
110 23036338
111 23036338
112 23036338
113 23036338
114 23036338
115 23036338
116 23036338
117 23036338
118 23036338
119 23036338
120 23036338
121 23036338
122 23036338
123 23036338
124 23036338
125 23036338
126 23036338
127 23036338
128 23036338
129 23036338
130 23036338
131 23036338
132 23036338
133 23036338
134 23036338
135 23036338
136 23036338
137 23036338
138 23036338
139 23036338
140 23036338
141 23036338
142 23036338
143 23036338
144 23036338
145 23036338
146 23036338
147 23036338
148 23036338
149 23036338
150 23036338
151 23036338
152 23036338
153 23036338
154 23036338
155 23036338
156 23036338
157 23036338
158 22961382
159 22961382
160 22961382
161 22961382
162 22961382
163 22961382
164 22961382
165 22961382
166 22961382
167 22961382
168 22961382
169 22961382
170 22961382
171 22961382
172 22961382
173 22961382
174 22961382
175 22961382
176 22961382
177 22961382
178 22961382
179 22961382
180 22961382
181 22961382
182 22961382
183 22961382
184 22961382
185 22961382
186 22961382
187 22961382
188 22961382
189 22961382
190 22961382
191 22871730
192 22871730
193 22871730
194 22835836
195 22835836
196 22835836
197 22835836
198 22835836
199 22835836
200 22835836
201 22835836
202 22835836
203 22835836
204 22835836
205 22835836
206 22835836
207 22835836
208 22835836
209 22835836
210 22835836
211 22835836
212 22835836
213 22835836
214 22835836
215 22835836
216 22835836
217 22835836
218 22835836
219 22835836
220 22835836
221 22835836
222 22722662
223 22722662
224 22665732
225 22665732
226 22665732
227 22665732
228 22665732
229 22665732
230 22665732
231 22665732
232 22665732
233 22665732
234 22665732
235 22665732
236 22665732
237 22665732
238 22665732
239 22665732
240 22665732
241 22665732
242 22665732
243 22665732
244 22665732
245 22620144
246 22620144
247 22620144
248 22620144
249 22620144
250 22620144
